VOCs = {heptane, octane, methyl_acetate, two_butanone, ethyl_acetate, methyl_propanoate, two_methyl_butanal,
 isovaleraldehyde, ethyl_propanoate, three_pentanone, valeraldehyde, ethyl_vinyl_ketone,
 two_butanol, ethyl_butanoate, propanol, buthyl_acetate, hexanal, isobutanol, two_pentanol, 
 E_two_pentenal, Z_three_hexenal, one_penten_three_ol, two_heptanone,
  heptanal, limonene, two_methyl_one_butanol_plus_three_methyl_one_butanol,
 E_two_hexenal, ocimene, pentanol, hexyl_acetate, two_octanone, octanal, one_octen_three_one,
  E_two_pentenol, Z_three_hexenyl_acetate, E_two_heptenal, two_heptanol, Z_two_pentenol, E_two_hexenyl_acetate, six_methyl_five_hepten_two_one,
   hexanol, E_three_hexenol, Z_three_hexenol, two_nonanone, nonanal, two_four_hexadienal, E_two_hexenol,
    Z_two_hexenol, two_octanol, E_two_octenal, one_octen_three_ol, heptanol, two_four_heptadienal, decanal,
     benzaldehyde, E_two_nonenal, propanoic_acid, octanol, butanoic_acid, E_two_decenal, nonanol,
      two_four_nonadienal, pentanoic_acid, two_four_decadienal, hexanoic_acid, guaiacol, phenyl_ethanol, phenol, four_ethylguaiacol, four_ethyl_phenol};

%OilsNamesPlaceholder
Oils = {Lampante_virgin_olive_oil_Rancid, 
Lampante_virgin_olive_oil_Musty, 
Commercial_extra_virgin_olive_oil_Northern_Italy,
Commercial_extra_virgin_olive_oil_Southern_Italyone,
Commercial_extra_virgin_olive_oil_Southern_Italytwo, 
Commercial_extra_virgin_olive_oil_France,
Commercial_extra_virgin_olive_oil_Spain, 
Commercial_extra_virgin_olive_oil_South_Africa, 
Commercial_extra_virgin_live_oil_Portugal, 
Commercial_extra_virgin_olive_oil_Tunisia };

Target_name = "Commercial_extra_virgin_olive_oils_Central_Italy";

threshold = [694,60,206,40,50.9,465,778,54,198,789,613,915,123,98,688,200,129,814,255,785,227,310,268,90,186,590,936,2,897,669,903,568,139,301,84,960,221,638,927,411,691,702,787,30,806,374,415,572,236,947,960,43,711,807,727,580,501,82,54,536,971,564,730,520,504,928,892,177,48,278] ;

sensitivity = 
[1,1,1,1,1,1,1,1,1,1,1,1,1,1,1,1,1,1,1,1,1,1,1,1,1,1,1,1,1,1,1,1,1,1,1,1,1,1,1,1,1,1,1,1,1,1,1,1,1,1,1,1,1,1,1,1,1,1,1,1,1,1,1,1,1,1,1,1,1,1];

costs = [30,30,30,30,30,30,30,30,30,30];
costs_target =30;
MAX_COST =100.0;
MAX_DIST =12;

concentrations_target = [0,0,0.03,0.06,0.03,0.014,0.04,0,0,0.28,0.17,0.46,0,0.05,0,0.21,0,0,0,0.09,0.39,0.55,0,0,0,0.05,8.61,0.03,0.02,0.28,0,0,0.1,0.25,0.86,0.03,0.05,0.12,0.09,0,0.64,0.05,0.98,0.23,11.15,0.41,0.97,0.05,0.05,0,0.05,0.04,0,0,0.04,0.02,0.04,0.06,0.03,0,0.27,0.05,0,0.14,0,0,0.31,0.1,0,0];
                      
concentrations = [| 0.93,0,0,0,0,0,0,0,0,0,|1.5,0.14,0,0,0,0,0,0,0,0.18,|0.04,0.31,0.06,0.04,0.03,0.03,0.05,0.31,0.11,0.18,|0,0.03,0.06,0.06,0.06,0.06,0.05,0.06,0.06,0.06,|0,0.26,0,0.04,0,0,0.03,0.03,0.41,0.57,|0.01,0.01,0.013,0.015,0.017,0.019,0.011,0.011,0.024,0.021,|0,0,0.03,0.14,0.03,0.09,0.07,0.08,0.06,0.13,|0,0,0,0,0,0,0,0.03,0,0.07,|0,0,0,0,0,0,0,0,0,0,|0,0.12,0.09,0.16,0.11,0.18,0.2,0.14,0.42,0.27,|1.1,1.56,0.16,0.22,0.2,0.2,0.14,0.13,0.26,0.3,|0.01,0.01,0.56,0.68,0.5,0.34,0.53,0.57,0.23,0.13,|0,0,0,0,0,0,0,0,0,0,|0.02,0.02,0.05,0.06,0.05,0.05,0.05,0.05,0.06,0.04,|0,0.03,0,0,0,0,0,0,0.04,0.03,|0.07,0.07,0.16,0.23,0.25,0.16,0.18,0.24,0.13,0.26,|5.16,5.06,0,0.31,0.73,0,0,0.69,0,1.01,|0.04,0.03,0,0,0,0,0,0,0,0.12,|0,0,0,0,0,0,0,0,0,0,|0.05,0.13,0.16,0.09,0.07,0.09,0.11,0.14,0.09,0.07,|0,0.03,0.5,0.55,0.47,0.21,0.32,0.53,0.27,0.16,|0.02,0.14,0.18,0.67,0.62,0.34,0.5,0.5,0.27,0.25,|1.49,0.01,0,0,0,0,0,0,0,0,|2.06,0.28,0,0,0,0,0,0,0,0,|0,0.03,0,0,0,0.03,0,0.11,0,0,|0,0,0.04,0.05,0.04,0.05,0.05,0.05,0.08,0.13,|0,0.17,11.34,16.43,11,4.46,3.07,2.17,5.62,3.47,|0,0.02,0.03,0.04,0.03,0.03,0,0.03,0.03,0.05,|0.16,0.05,0,0.02,0.02,0.02,0.02,0.02,0.04,0.04,|0.04,0.07,0.13,0.11,0.1,0.41,0.14,0.09,0.15,0.11,|0.46,0,0,0,0,0,0,0,0,0,|3.2,0,0,0,0,0,0,0,0,0,|0.03,0.06,0.11,0.1,0.04,0.04,0.1,0.04,0.09,0.08,|0,0,0.19,0.27,0.33,0.16,0.31,0.24,0.14,0.09,|0.11,0.19,0.35,0.29,0.51,2.17,1.09,0.28,0.77,0.29,|0.41,0.45,0,0.06,0,0,0,0,0,0.34,|0.03,0.02,0.05,0.05,0.05,0.05,0.05,0.05,0.05,0.05,|0,0,0.08,0.12,0.12,0.09,0.13,0.13,0.08,0.08,|0,0.02,0.07,0.09,0.07,0.07,0.07,0.06,0.07,0.07,|0,2.76,0,0,0,0,0,0,0,0,|0.17,0,0.45,0.48,0.49,0.45,0.51,0.36,0.74,0.53,|0,0,0.04,0.04,0.04,0.05,0.06,0.04,0.08,0.04,|0,0.05,0.5,0.47,0.69,0.84,2.24,0.44,1.93,0.32,|1.09,0,0.07,0.14,0.11,0.03,0.05,0,0.36,0.06,|2.65,2.43,4.22,6.68,4.94,2.22,1.66,0.95,17.5,5.66,|0,0,0.48,0.41,0.49,0.16,0.28,0.37,0.23,0.06,|0.26,0.29,0.65,0.72,0.7,0.57,0.55,0.53,1.22,0.71,|0,0,0.03,0.05,0.04,0.03,0.03,0.03,0.06,0.04,|0.02,0,0.04,0.05,0.04,0.04,0.05,0.04,0.04,0.04,|0.92,0,0,0,0,0,0,0,0,0,|0.08,0,0.04,0.04,0.04,0.04,0.04,0.04,0.04,0.05,|0.17,0.02,0.04,0.04,0.04,0.04,0.04,0.04,0.04,0.05,|0.71,0.24,0,0,0.06,0.18,0,0.07,0,0,|3.32,0.62,0,0,0.31,0.74,0,0.27,0,0,|0,0.08,0.03,0.06,0,0.06,0.03,0.03,0.03,0.03,|0.66,0.04,0.03,0.03,0,0,0.03,0.15,0,0.06,|0.86,0.82,0,0,0,0,0,0,0,0,|0.15,0.03,0.05,0.05,0.04,0.04,0.04,0.04,0.04,0.06,|1.31,0.18,0,0.03,0,0.03,0.03,0.06,0.03,0.05,|1.02,0,0,0,0,0,0,0,0,0,|0.35,0.16,0.26,0.27,0.25,0.25,0.26,0.25,0.26,0.28,|0.17,0.12,0.05,0.05,0.03,0.03,0.06,0.11,0.03,0.07,|2.65,0.48,0,0,0,0,0,0,0,0,|0.54,0,0.12,0,0,0.13,0,0.16,0,0,|7.47,1.16,0,0,0,0,0,0,0,0.04,|0,0.54,0,0,0,0,0,0,0,0,|0,0.31,0.14,0.14,0.16,0.28,0.12,0.11,0.14,0.22,|0,0.22,0.03,0.07,0.07,0.05,0.05,0.08,0.07,0.06,|0,0.35,0,0,0,0,0,0,0,0,|0,2.14,0,0,0,0,0,0,0,0.07 |];


cost_factor =0.5;
distance_factor =1.1;